n_res = 4;
rc = [ 20, 25, 25, 28 ];
n_tasks = 30;
d = [ 3, 4, 5, 8, 1, 5, 4, 8, 10, 4, 3, 10, 6, 6, 10, 9, 8, 6, 1, 9, 5, 4, 3, 6, 10, 9, 6, 9, 5, 10 ];
rr = [| 7, 6, 4, 8, 1, 8, 4, 2, 3, 1, 7, 6, 4, 1, 7, 5, 8, 5, 7, 7, 6, 2, 6, 2, 5, 4, 8, 9, 2, 5
      | 8, 5, 10, 2, 1, 4, 5, 3, 9, 7, 5, 5, 10, 7, 5, 5, 2, 5, 5, 10, 7, 1, 9, 3, 6, 3, 9, 7, 9, 2
      | 10, 3, 10, 8, 6, 5, 9, 8, 4, 2, 4, 6, 3, 4, 5, 9, 1, 7, 8, 1, 3, 7, 7, 1, 6, 4, 7, 10, 8, 7
      | 4, 1, 10, 1, 10, 7, 3, 1, 7, 9, 9, 5, 6, 10, 4, 9, 6, 3, 4, 6, 9, 2, 2, 4, 4, 2, 9, 3, 1, 9 |];
suc = [ { 2 }, 
        { 3 }, 
        { 4 }, 
        { 5 }, 
        { 6 }, 
        { 7 }, 
        { 8 }, 
        { 9 }, 
        { 10 }, 
        { 11 }, 
        { 12 }, 
        { 13 }, 
        { 14 }, 
        { 15 }, 
        { 16 }, 
        { 17 }, 
        { 18 }, 
        { 19 }, 
        { 20 }, 
        { 21 }, 
        { 22 }, 
        { 23 }, 
        { 24 }, 
        { 25 }, 
        { 26 }, 
        { 27 }, 
        { 28 }, 
        { 29 }, 
        { 30 }, 
        {  }]; 
